p edge 100 1434
e 1 3
e 1 4
e 1 6
e 1 7
e 1 18
e 1 20
e 1 25
e 1 28
e 1 30
e 1 31
e 1 37
e 1 39
e 1 40
e 1 44
e 1 45
e 1 53
e 1 59
e 1 62
e 1 68
e 1 72
e 1 74
e 1 76
e 1 78
e 1 80
e 1 81
e 1 83
e 1 86
e 1 94
e 1 97
e 1 100
e 2 4
e 2 11
e 2 17
e 2 26
e 2 35
e 2 36
e 2 38
e 2 52
e 2 53
e 2 57
e 2 60
e 2 62
e 2 65
e 2 68
e 2 73
e 2 77
e 2 83
e 2 86
e 2 88
e 2 90
e 2 91
e 2 95
e 2 96
e 3 5
e 3 6
e 3 7
e 3 8
e 3 9
e 3 10
e 3 12
e 3 18
e 3 27
e 3 32
e 3 35
e 3 36
e 3 38
e 3 41
e 3 44
e 3 45
e 3 52
e 3 56
e 3 57
e 3 59
e 3 61
e 3 62
e 3 68
e 3 76
e 3 77
e 3 79
e 3 81
e 3 82
e 3 83
e 3 86
e 3 94
e 3 95
e 3 97
e 3 98
e 4 8
e 4 9
e 4 16
e 4 20
e 4 26
e 4 32
e 4 33
e 4 34
e 4 36
e 4 41
e 4 42
e 4 52
e 4 54
e 4 59
e 4 66
e 4 67
e 4 69
e 4 70
e 4 71
e 4 73
e 4 80
e 4 81
e 4 82
e 4 87
e 4 88
e 4 89
e 4 91
e 4 96
e 4 100
e 5 6
e 5 10
e 5 18
e 5 19
e 5 26
e 5 29
e 5 31
e 5 34
e 5 35
e 5 37
e 5 42
e 5 50
e 5 52
e 5 56
e 5 57
e 5 58
e 5 60
e 5 61
e 5 62
e 5 66
e 5 74
e 5 80
e 5 82
e 5 83
e 5 91
e 5 94
e 6 7
e 6 8
e 6 10
e 6 15
e 6 20
e 6 25
e 6 29
e 6 31
e 6 33
e 6 34
e 6 36
e 6 37
e 6 43
e 6 45
e 6 47
e 6 48
e 6 52
e 6 56
e 6 60
e 6 69
e 6 82
e 6 85
e 6 86
e 6 87
e 6 88
e 6 89
e 6 91
e 6 96
e 6 97
e 7 13
e 7 14
e 7 16
e 7 25
e 7 48
e 7 51
e 7 52
e 7 54
e 7 60
e 7 68
e 7 72
e 7 73
e 7 75
e 7 78
e 7 79
e 7 81
e 7 85
e 7 86
e 7 87
e 7 89
e 7 90
e 7 91
e 7 95
e 7 96
e 7 98
e 8 10
e 8 13
e 8 18
e 8 19
e 8 20
e 8 22
e 8 24
e 8 27
e 8 31
e 8 32
e 8 39
e 8 40
e 8 41
e 8 44
e 8 48
e 8 53
e 8 61
e 8 63
e 8 69
e 8 71
e 8 75
e 8 76
e 8 79
e 8 82
e 8 85
e 8 86
e 8 88
e 8 92
e 8 95
e 8 98
e 8 100
e 9 10
e 9 21
e 9 22
e 9 29
e 9 32
e 9 33
e 9 34
e 9 36
e 9 44
e 9 49
e 9 51
e 9 52
e 9 57
e 9 59
e 9 60
e 9 62
e 9 66
e 9 68
e 9 75
e 9 79
e 9 84
e 9 90
e 9 91
e 9 96
e 9 97
e 9 100
e 10 13
e 10 16
e 10 17
e 10 18
e 10 23
e 10 26
e 10 28
e 10 29
e 10 41
e 10 45
e 10 49
e 10 52
e 10 54
e 10 55
e 10 56
e 10 58
e 10 60
e 10 70
e 10 71
e 10 72
e 10 76
e 10 77
e 10 78
e 10 79
e 10 83
e 10 84
e 10 85
e 10 86
e 10 96
e 10 99
e 11 13
e 11 17
e 11 18
e 11 20
e 11 24
e 11 29
e 11 30
e 11 31
e 11 35
e 11 44
e 11 48
e 11 51
e 11 52
e 11 55
e 11 61
e 11 62
e 11 67
e 11 69
e 11 70
e 11 80
e 11 85
e 11 91
e 11 93
e 11 98
e 11 99
e 11 100
e 12 16
e 12 22
e 12 24
e 12 31
e 12 34
e 12 38
e 12 44
e 12 45
e 12 46
e 12 47
e 12 49
e 12 53
e 12 60
e 12 66
e 12 68
e 12 69
e 12 73
e 12 79
e 12 91
e 12 94
e 12 99
e 13 17
e 13 28
e 13 31
e 13 35
e 13 38
e 13 42
e 13 44
e 13 46
e 13 47
e 13 51
e 13 53
e 13 58
e 13 60
e 13 63
e 13 65
e 13 67
e 13 68
e 13 69
e 13 70
e 13 72
e 13 75
e 13 77
e 13 78
e 13 82
e 13 84
e 13 85
e 13 86
e 13 89
e 13 91
e 13 94
e 13 95
e 13 96
e 13 97
e 13 99
e 14 20
e 14 25
e 14 26
e 14 28
e 14 34
e 14 35
e 14 38
e 14 39
e 14 40
e 14 44
e 14 46
e 14 47
e 14 54
e 14 57
e 14 65
e 14 68
e 14 75
e 14 93
e 15 19
e 15 22
e 15 24
e 15 26
e 15 30
e 15 31
e 15 32
e 15 54
e 15 57
e 15 60
e 15 69
e 15 75
e 15 81
e 15 83
e 15 88
e 15 89
e 15 100
e 16 18
e 16 20
e 16 21
e 16 26
e 16 39
e 16 42
e 16 43
e 16 44
e 16 45
e 16 49
e 16 58
e 16 65
e 16 67
e 16 68
e 16 75
e 16 83
e 16 85
e 16 86
e 16 93
e 16 95
e 16 96
e 17 20
e 17 25
e 17 27
e 17 30
e 17 31
e 17 32
e 17 44
e 17 45
e 17 54
e 17 56
e 17 57
e 17 58
e 17 59
e 17 60
e 17 61
e 17 63
e 17 64
e 17 71
e 17 73
e 17 74
e 17 81
e 17 84
e 17 85
e 17 87
e 17 88
e 17 89
e 17 94
e 17 97
e 17 99
e 18 21
e 18 23
e 18 31
e 18 33
e 18 34
e 18 36
e 18 37
e 18 41
e 18 42
e 18 43
e 18 46
e 18 47
e 18 50
e 18 52
e 18 62
e 18 65
e 18 69
e 18 70
e 18 71
e 18 72
e 18 82
e 18 84
e 18 85
e 18 87
e 18 90
e 18 92
e 18 93
e 18 94
e 18 99
e 19 20
e 19 21
e 19 23
e 19 30
e 19 41
e 19 50
e 19 55
e 19 57
e 19 64
e 19 76
e 19 77
e 19 100
e 20 21
e 20 25
e 20 28
e 20 29
e 20 31
e 20 34
e 20 36
e 20 38
e 20 39
e 20 48
e 20 49
e 20 53
e 20 54
e 20 56
e 20 58
e 20 62
e 20 64
e 20 66
e 20 74
e 20 75
e 20 76
e 20 87
e 20 93
e 20 97
e 20 98
e 21 22
e 21 25
e 21 28
e 21 38
e 21 41
e 21 63
e 21 70
e 21 73
e 21 75
e 21 79
e 21 82
e 21 84
e 21 88
e 21 92
e 22 26
e 22 28
e 22 32
e 22 33
e 22 35
e 22 36
e 22 37
e 22 38
e 22 44
e 22 47
e 22 52
e 22 60
e 22 61
e 22 68
e 22 69
e 22 73
e 22 75
e 22 82
e 22 86
e 22 87
e 22 88
e 22 90
e 22 97
e 22 99
e 22 100
e 23 26
e 23 32
e 23 38
e 23 41
e 23 42
e 23 43
e 23 46
e 23 49
e 23 54
e 23 57
e 23 64
e 23 67
e 23 70
e 23 72
e 23 75
e 23 79
e 23 81
e 23 82
e 23 92
e 23 95
e 23 97
e 24 26
e 24 31
e 24 34
e 24 35
e 24 36
e 24 41
e 24 43
e 24 46
e 24 54
e 24 78
e 24 80
e 24 81
e 24 82
e 24 84
e 24 87
e 24 91
e 24 92
e 24 93
e 24 95
e 24 97
e 25 27
e 25 30
e 25 33
e 25 37
e 25 39
e 25 44
e 25 46
e 25 53
e 25 54
e 25 56
e 25 60
e 25 78
e 25 80
e 25 81
e 25 86
e 25 90
e 25 92
e 25 95
e 25 98
e 26 27
e 26 28
e 26 29
e 26 37
e 26 39
e 26 40
e 26 42
e 26 43
e 26 45
e 26 51
e 26 53
e 26 57
e 26 59
e 26 63
e 26 64
e 26 69
e 26 71
e 26 74
e 26 78
e 26 79
e 26 84
e 26 85
e 26 86
e 26 88
e 26 89
e 26 94
e 26 98
e 26 100
e 27 29
e 27 33
e 27 37
e 27 38
e 27 39
e 27 40
e 27 45
e 27 49
e 27 52
e 27 55
e 27 60
e 27 64
e 27 65
e 27 66
e 27 67
e 27 68
e 27 72
e 27 75
e 27 77
e 27 78
e 27 80
e 27 94
e 27 95
e 27 98
e 27 99
e 28 30
e 28 31
e 28 35
e 28 38
e 28 40
e 28 41
e 28 43
e 28 46
e 28 51
e 28 55
e 28 57
e 28 60
e 28 61
e 28 62
e 28 78
e 28 84
e 28 85
e 28 86
e 28 87
e 28 88
e 28 89
e 29 30
e 29 31
e 29 32
e 29 33
e 29 35
e 29 37
e 29 40
e 29 43
e 29 47
e 29 49
e 29 50
e 29 51
e 29 63
e 29 68
e 29 73
e 29 75
e 29 76
e 29 88
e 29 89
e 29 91
e 30 31
e 30 43
e 30 54
e 30 58
e 30 62
e 30 64
e 30 67
e 30 83
e 30 87
e 30 90
e 30 92
e 30 94
e 31 32
e 31 34
e 31 36
e 31 37
e 31 38
e 31 42
e 31 43
e 31 45
e 31 47
e 31 50
e 31 52
e 31 53
e 31 56
e 31 62
e 31 66
e 31 73
e 31 74
e 31 75
e 31 84
e 31 85
e 31 96
e 31 97
e 31 98
e 32 33
e 32 39
e 32 44
e 32 60
e 32 63
e 32 65
e 32 67
e 32 68
e 32 72
e 32 73
e 32 79
e 32 80
e 32 82
e 32 86
e 32 87
e 32 88
e 32 93
e 32 94
e 32 97
e 32 100
e 33 34
e 33 35
e 33 41
e 33 46
e 33 47
e 33 48
e 33 50
e 33 51
e 33 56
e 33 67
e 33 74
e 33 77
e 33 84
e 33 86
e 33 87
e 33 91
e 33 92
e 33 98
e 34 35
e 34 40
e 34 42
e 34 44
e 34 47
e 34 48
e 34 57
e 34 60
e 34 61
e 34 66
e 34 68
e 34 73
e 34 74
e 34 78
e 34 79
e 34 84
e 34 88
e 34 89
e 34 97
e 35 36
e 35 38
e 35 39
e 35 40
e 35 43
e 35 46
e 35 47
e 35 49
e 35 55
e 35 56
e 35 60
e 35 66
e 35 69
e 35 75
e 35 85
e 35 86
e 35 89
e 35 91
e 35 95
e 36 38
e 36 39
e 36 40
e 36 48
e 36 55
e 36 66
e 36 67
e 36 79
e 36 82
e 36 83
e 36 90
e 36 92
e 36 94
e 36 95
e 36 98
e 36 99
e 36 100
e 37 39
e 37 41
e 37 42
e 37 44
e 37 50
e 37 51
e 37 52
e 37 53
e 37 55
e 37 59
e 37 61
e 37 62
e 37 70
e 37 71
e 37 73
e 37 74
e 37 76
e 37 80
e 37 81
e 37 83
e 37 88
e 37 89
e 37 92
e 37 96
e 37 98
e 37 100
e 38 52
e 38 55
e 38 60
e 38 61
e 38 65
e 38 68
e 38 79
e 38 88
e 38 91
e 38 93
e 38 97
e 38 99
e 39 40
e 39 46
e 39 47
e 39 52
e 39 55
e 39 56
e 39 57
e 39 58
e 39 60
e 39 64
e 39 73
e 39 79
e 39 80
e 39 81
e 39 87
e 39 88
e 39 91
e 39 92
e 39 94
e 39 97
e 39 99
e 40 45
e 40 47
e 40 50
e 40 51
e 40 59
e 40 80
e 40 81
e 40 82
e 40 83
e 40 94
e 40 96
e 40 98
e 40 99
e 41 43
e 41 45
e 41 46
e 41 55
e 41 57
e 41 63
e 41 67
e 41 70
e 41 73
e 41 74
e 41 82
e 41 90
e 41 92
e 41 93
e 41 95
e 41 96
e 41 98
e 42 47
e 42 48
e 42 51
e 42 63
e 42 72
e 42 73
e 42 74
e 42 77
e 42 85
e 42 93
e 42 94
e 42 95
e 42 96
e 42 98
e 42 100
e 43 45
e 43 47
e 43 49
e 43 59
e 43 64
e 43 67
e 43 70
e 43 75
e 43 77
e 43 79
e 43 89
e 43 94
e 43 95
e 43 96
e 43 97
e 43 98
e 43 99
e 43 100
e 44 46
e 44 50
e 44 52
e 44 63
e 44 64
e 44 66
e 44 69
e 44 81
e 44 83
e 44 85
e 44 93
e 44 94
e 44 97
e 44 100
e 45 46
e 45 47
e 45 49
e 45 52
e 45 53
e 45 54
e 45 55
e 45 59
e 45 63
e 45 68
e 45 69
e 45 71
e 45 75
e 45 82
e 45 85
e 45 86
e 45 88
e 45 90
e 45 92
e 45 95
e 45 96
e 45 100
e 46 49
e 46 50
e 46 60
e 46 61
e 46 65
e 46 68
e 46 69
e 46 72
e 46 77
e 46 83
e 46 85
e 46 86
e 46 95
e 46 98
e 46 99
e 47 50
e 47 52
e 47 55
e 47 56
e 47 60
e 47 61
e 47 67
e 47 69
e 47 74
e 47 78
e 47 84
e 47 96
e 47 98
e 48 50
e 48 52
e 48 53
e 48 55
e 48 57
e 48 58
e 48 61
e 48 66
e 48 76
e 48 83
e 48 87
e 48 88
e 48 95
e 48 97
e 48 98
e 49 60
e 49 62
e 49 65
e 49 73
e 49 75
e 49 76
e 49 79
e 49 83
e 49 84
e 49 85
e 49 86
e 49 87
e 49 89
e 49 93
e 49 94
e 49 95
e 50 55
e 50 59
e 50 61
e 50 62
e 50 69
e 50 73
e 50 76
e 50 79
e 50 83
e 50 86
e 50 88
e 50 89
e 50 92
e 50 93
e 50 98
e 50 99
e 51 57
e 51 64
e 51 65
e 51 66
e 51 68
e 51 71
e 51 73
e 51 81
e 51 84
e 51 85
e 51 90
e 51 91
e 51 93
e 51 96
e 52 61
e 52 65
e 52 70
e 52 75
e 52 77
e 52 85
e 52 86
e 52 94
e 52 98
e 52 99
e 53 55
e 53 58
e 53 67
e 53 68
e 53 71
e 53 73
e 53 75
e 53 76
e 53 77
e 53 78
e 53 79
e 53 83
e 53 85
e 53 86
e 53 87
e 53 88
e 53 89
e 53 91
e 53 92
e 53 96
e 53 98
e 53 99
e 54 55
e 54 58
e 54 59
e 54 60
e 54 66
e 54 69
e 54 70
e 54 72
e 54 74
e 54 76
e 54 80
e 54 82
e 54 83
e 54 86
e 54 87
e 54 89
e 54 92
e 54 93
e 54 95
e 54 97
e 54 98
e 54 99
e 55 60
e 55 61
e 55 65
e 55 67
e 55 71
e 55 87
e 55 90
e 55 98
e 56 59
e 56 61
e 56 68
e 56 70
e 56 76
e 56 78
e 56 85
e 56 91
e 56 92
e 56 96
e 57 59
e 57 67
e 57 68
e 57 69
e 57 70
e 57 71
e 57 72
e 57 77
e 57 82
e 57 83
e 57 85
e 57 86
e 57 88
e 57 89
e 57 90
e 57 93
e 57 100
e 58 62
e 58 64
e 58 69
e 58 78
e 58 80
e 58 81
e 58 86
e 58 88
e 58 90
e 58 95
e 58 98
e 59 68
e 59 72
e 59 74
e 59 78
e 59 85
e 59 86
e 59 89
e 59 92
e 59 94
e 59 98
e 59 100
e 60 68
e 60 71
e 60 75
e 60 78
e 60 79
e 60 80
e 60 81
e 60 83
e 60 84
e 60 87
e 60 88
e 60 89
e 60 93
e 60 99
e 61 63
e 61 64
e 61 68
e 61 73
e 61 76
e 61 78
e 61 82
e 61 83
e 61 85
e 61 87
e 61 90
e 61 91
e 62 65
e 62 67
e 62 68
e 62 74
e 62 79
e 62 81
e 62 85
e 62 95
e 62 97
e 62 98
e 63 64
e 63 76
e 63 94
e 64 67
e 64 70
e 64 72
e 64 73
e 64 74
e 64 77
e 64 83
e 64 84
e 64 85
e 64 88
e 64 93
e 64 95
e 64 100
e 65 66
e 65 67
e 65 72
e 65 79
e 65 84
e 65 86
e 65 90
e 65 91
e 65 95
e 65 96
e 65 97
e 65 99
e 66 82
e 66 83
e 66 86
e 66 87
e 66 88
e 66 90
e 66 91
e 66 93
e 66 96
e 66 99
e 66 100
e 67 72
e 67 74
e 67 84
e 67 87
e 67 88
e 67 94
e 67 97
e 68 71
e 68 77
e 68 78
e 68 82
e 68 86
e 68 91
e 68 92
e 68 95
e 68 99
e 69 71
e 69 79
e 69 80
e 69 83
e 69 93
e 69 95
e 69 98
e 69 99
e 70 71
e 70 73
e 70 83
e 70 88
e 70 89
e 70 92
e 70 94
e 71 75
e 71 82
e 71 83
e 72 82
e 72 87
e 72 92
e 72 93
e 72 94
e 72 97
e 73 79
e 73 81
e 73 84
e 73 85
e 73 86
e 73 87
e 73 88
e 73 92
e 73 95
e 73 97
e 73 98
e 74 76
e 74 81
e 74 86
e 74 89
e 74 90
e 74 94
e 74 98
e 75 76
e 75 77
e 75 83
e 75 85
e 75 93
e 75 95
e 75 97
e 75 98
e 76 78
e 76 79
e 76 80
e 76 81
e 76 82
e 76 85
e 76 86
e 76 88
e 76 89
e 76 94
e 76 96
e 77 82
e 77 83
e 77 86
e 77 87
e 77 95
e 78 79
e 78 80
e 78 83
e 78 91
e 78 92
e 78 93
e 78 95
e 78 98
e 78 100
e 79 82
e 79 89
e 79 90
e 79 92
e 79 93
e 79 94
e 79 95
e 79 97
e 79 100
e 80 81
e 80 84
e 80 93
e 80 95
e 80 98
e 80 100
e 81 83
e 81 87
e 81 90
e 82 83
e 82 84
e 82 85
e 82 88
e 82 89
e 82 98
e 83 84
e 83 90
e 83 94
e 83 95
e 83 99
e 84 85
e 84 86
e 84 90
e 84 91
e 85 86
e 85 87
e 85 90
e 85 91
e 85 96
e 85 97
e 85 99
e 85 100
e 86 87
e 86 97
e 86 99
e 87 89
e 87 94
e 87 99
e 87 100
e 88 90
e 88 91
e 88 93
e 88 97
e 89 91
e 89 97
e 90 94
e 90 95
e 90 98
e 90 100
e 91 93
e 92 94
e 93 97
e 93 98
e 93 99
e 94 95
e 94 96
e 94 97
e 94 98
e 95 97
e 96 97
e 96 99
e 96 100
e 97 99
e 98 100
e 99 100